3 3 2
20 0 195 2 14 0 107 1 28 2 8 0 48 2 45 1 134 2 59 1 143 0 58 1 62 0 192 1 16 2 55 0 79 2 72 0 51 1 73 0 128 
20 2 161 1 74 0 39 1 37 2 25 0 37 1 134 2 177 0 72 2 66 1 34 0 197 1 71 2 146 1 2 0 3 2 1 1 144 2 73 0 30 
20 1 186 2 148 1 120 2 125 0 153 2 87 1 178 2 55 0 13 1 168 0 148 2 69 1 147 2 84 0 41 2 194 0 53 2 127 0 15 2 7 

-------------
